# Solution for model r3_t27_m1_1
# Finished Task: 24 / 27
# Makespan: 639.0, Total Distance: 953.0, Total Time: 1.2760
# R O S F
0 0 5 0.0 0.0
1 1 26 0.0 0.0
2 2 4 0.0 0.0
3 2 -1 612.0 639.0
4 2 15 46.0 78.0
5 0 6 133.0 165.0
6 0 17 239.0 272.0
7 0 16 446.0 467.0
8 0 28 548.0 571.0
9 1 -1 604.0 624.0
10 1 21 374.0 412.0
11 2 3 484.0 509.0
12 2 24 192.0 229.0
13 0 -1 614.0 635.0
14 -1 -1 -1.0 -1.0
15 2 12 111.0 134.0
16 0 8 491.0 519.0
17 0 7 380.0 414.0
18 -1 -1 -1.0 -1.0
19 1 10 316.0 350.0
20 2 22 338.0 365.0
21 1 25 433.0 455.0
22 2 23 375.0 407.0
23 2 11 436.0 464.0
24 2 20 272.0 303.0
25 1 9 522.0 542.0
26 1 27 94.0 122.0
27 1 19 259.0 292.0
28 0 13 592.0 614.0
29 -1 -1 -1.0 -1.0
